32	0

0	3	2	3	4
8	2	5	6
4	2	5	6
8	2	5	6
9	2	8	9
5	1	7
2	2	8	9
2	2	10	11
1	2	10	11
4	2	12	13
2	2	12	13
9	1	14
8	1	14
4	2	15	16
9	2	17	18
5	2	17	18
10	2	19	20
9	2	19	20
8	1	21
5	1	21
5	1	22
4	2	23	24
9	2	25	26
10	2	25	26
1	1	27
10	1	28
8	2	28	29
4	2	30	31
5	2	30	31
3	1	32
5	1	32
0	0
